23 200
0 0 70 70 0 0 634 0 0 0
1 73 70 94 32 24 34 10 0 194
2 30 64 132 8 67 77 10 0 98
3 152 64 115 15 0 579 10 0 128
4 142 56 139 18 0 554 10 0 189
5 20 46 133 7 0 557 10 0 58
6 163 37 138 5 220 230 10 0 22
7 102 17 138 8 0 538 0 0 208
8 6 12 138 14 285 295 10 0 177
9 77 10 111 21 0 552 10 0 127
10 19 22 104 11 0 566 10 0 198
11 57 39 100 31 0 581 0 0 201
12 194 56 129 -32 0 564 10 73 0
13 98 49 140 -8 0 551 10 30 0
14 128 64 138 -15 0 556 10 152 0
15 189 8 138 -18 0 532 10 142 0
16 58 5 99 -7 0 553 10 20 0
17 22 16 92 -5 0 566 10 163 0
18 208 17 138 -8 0 538 10 102 0
19 177 13 129 -14 361 371 10 6 0
20 127 2 106 -21 0 548 10 77 0
21 198 27 104 -11 0 570 10 19 0
22 201 39 100 -31 0 581 10 57 0

